c Random 3-CNF over 10 variables and 5 clauses
c Generated with `cnfgen`
c (C) 2012-2016 Massimo Lauria <lauria.massimo@gmail.com>
c https://massimolauria.github.io/cnfgen
c
c COMMAND LINE: cnfgen randkcnf 3 10 5
c
p cnf 10 5
-2 6 7 0
-2 -7 10 0
2 5 7 0
-5 -6 -10 0
7 -9 -10 0
